[[84, 85, 94, 93, 92, 91, 83, 82, 73, 74, 75, 76, 68, 67, 59, 58, 66, 65, 64, 56, 57, 55, 46, 47, 49, 50, 48, 38, 39, 40, 41, 32, 31, 30, 29, 37, 28, 19, 21], [22, 20, 13, 11, 10, 2, 12, 3, 4, 14, 5, 6, 7, 8, 9, 18, 17, 16, 15, 23, 24, 25, 26, 27, 35, 36, 44, 34, 33, 43, 42], [45, 51, 52, 53, 54, 63, 62, 60, 61, 71, 72, 81, 80, 70, 69, 78, 77, 79, 88, 89, 90, 99, 98, 97, 96, 87, 95, 86]]